# Tau isolation LUT with Option = 80
# on top of the table there is the inout compression scheme, followed by the LUT
# iso LUT structure is Et --> eta -->  nTT
# Input bits: eta: 6 et: 13 nTT: 10
# Compr bits: eta: 2 et: 4 nTT: 3
#<header> V1 14 7
0 0 # begin of eta compr block
1 0
2 0
3 0
4 0
5 1
6 1
7 1
8 1
9 2
10 2
11 2
12 2
13 2
14 2
15 2
16 2
17 3
18 3
19 3
20 3
21 3
22 3
23 3
24 3
25 3
26 3
27 3
28 3
29 3
30 3
31 3
32 3
33 3
34 3
35 3
36 3
37 3
38 3
39 3
40 3
41 3
42 3
43 3
44 3
45 3
46 3
47 3
48 3
49 3
50 3
51 3
52 3
53 3
54 3
55 3
56 3
57 3
58 3
59 3
60 3
61 3
62 3
63 3
64 0 # begin of ET compr block
65 0
66 0
67 0
68 0
69 0
70 0
71 0
72 0
73 0
74 0
75 0
76 0
77 0
78 0
79 0
80 0
81 0
82 1
83 1
84 2
85 2
86 3
87 3
88 3
89 3
90 3
91 3
92 4
93 4
94 4
95 4
96 5
97 5
98 5
99 5
100 5
101 6
102 6
103 6
104 6
105 6
106 7
107 7
108 7
109 7
110 7
111 7
112 7
113 7
114 7
115 7
116 8
117 8
118 8
119 8
120 8
121 8
122 8
123 8
124 8
125 8
126 8
127 9
128 9
129 9
130 9
131 9
132 9
133 9
134 9
135 9
136 9
137 10
138 10
139 10
140 10
141 10
142 10
143 10
144 10
145 11
146 11
147 11
148 11
149 11
150 11
151 12
152 12
153 12
154 12
155 13
156 13
157 13
158 13
159 13
160 13
161 13
162 13
163 13
164 13
165 13
166 13
167 13
168 13
169 13
170 13
171 13
172 13
173 13
174 13
175 14
176 14
177 14
178 14
179 14
180 14
181 14
182 14
183 14
184 14
185 14
186 14
187 14
188 14
189 14
190 14
191 14
192 14
193 14
194 14
195 14
196 14
197 14
198 14
199 14
200 14
201 14
202 14
203 14
204 14
205 14
206 14
207 14
208 14
209 14
210 14
211 14
212 14
213 14
214 14
215 15
216 15
217 15
218 15
219 15
220 15
221 15
222 15
223 15
224 15
225 15
226 15
227 15
228 15
229 15
230 15
231 15
232 15
233 15
234 15
235 15
236 15
237 15
238 15
239 15
240 15
241 15
242 15
243 15
244 15
245 15
246 15
247 15
248 15
249 15
250 15
251 15
252 15
253 15
254 15
255 15
256 15
257 15
258 15
259 15
260 15
261 15
262 15
263 15
264 15
265 15
266 15
267 15
268 15
269 15
270 15
271 15
272 15
273 15
274 15
275 15
276 15
277 15
278 15
279 15
280 15
281 15
282 15
283 15
284 15
285 15
286 15
287 15
288 15
289 15
290 15
291 15
292 15
293 15
294 15
295 15
296 15
297 15
298 15
299 15
300 15
301 15
302 15
303 15
304 15
305 15
306 15
307 15
308 15
309 15
310 15
311 15
312 15
313 15
314 15
315 15
316 15
317 15
318 15
319 15
320 15
321 15
322 15
323 15
324 15
325 15
326 15
327 15
328 15
329 15
330 15
331 15
332 15
333 15
334 15
335 15
336 15
337 15
338 15
339 15
340 15
341 15
342 15
343 15
344 15
345 15
346 15
347 15
348 15
349 15
350 15
351 15
352 15
353 15
354 15
355 15
356 15
357 15
358 15
359 15
360 15
361 15
362 15
363 15
364 15
365 15
366 15
367 15
368 15
369 15
370 15
371 15
372 15
373 15
374 15
375 15
376 15
377 15
378 15
379 15
380 15
381 15
382 15
383 15
384 15
385 15
386 15
387 15
388 15
389 15
390 15
391 15
392 15
393 15
394 15
395 15
396 15
397 15
398 15
399 15
400 15
401 15
402 15
403 15
404 15
405 15
406 15
407 15
408 15
409 15
410 15
411 15
412 15
413 15
414 15
415 15
416 15
417 15
418 15
419 15
420 15
421 15
422 15
423 15
424 15
425 15
426 15
427 15
428 15
429 15
430 15
431 15
432 15
433 15
434 15
435 15
436 15
437 15
438 15
439 15
440 15
441 15
442 15
443 15
444 15
445 15
446 15
447 15
448 15
449 15
450 15
451 15
452 15
453 15
454 15
455 15
456 15
457 15
458 15
459 15
460 15
461 15
462 15
463 15
464 15
465 15
466 15
467 15
468 15
469 15
470 15
471 15
472 15
473 15
474 15
475 15
476 15
477 15
478 15
479 15
480 15
481 15
482 15
483 15
484 15
485 15
486 15
487 15
488 15
489 15
490 15
491 15
492 15
493 15
494 15
495 15
496 15
497 15
498 15
499 15
500 15
501 15
502 15
503 15
504 15
505 15
506 15
507 15
508 15
509 15
510 15
511 15
512 15
513 15
514 15
515 15
516 15
517 15
518 15
519 15
520 15
521 15
522 15
523 15
524 15
525 15
526 15
527 15
528 15
529 15
530 15
531 15
532 15
533 15
534 15
535 15
536 15
537 15
538 15
539 15
540 15
541 15
542 15
543 15
544 15
545 15
546 15
547 15
548 15
549 15
550 15
551 15
552 15
553 15
554 15
555 15
556 15
557 15
558 15
559 15
560 15
561 15
562 15
563 15
564 15
565 15
566 15
567 15
568 15
569 15
570 15
571 15
572 15
573 15
574 15
575 15
576 15
577 15
578 15
579 15
580 15
581 15
582 15
583 15
584 15
585 15
586 15
587 15
588 15
589 15
590 15
591 15
592 15
593 15
594 15
595 15
596 15
597 15
598 15
599 15
600 15
601 15
602 15
603 15
604 15
605 15
606 15
607 15
608 15
609 15
610 15
611 15
612 15
613 15
614 15
615 15
616 15
617 15
618 15
619 15
620 15
621 15
622 15
623 15
624 15
625 15
626 15
627 15
628 15
629 15
630 15
631 15
632 15
633 15
634 15
635 15
636 15
637 15
638 15
639 15
640 15
641 15
642 15
643 15
644 15
645 15
646 15
647 15
648 15
649 15
650 15
651 15
652 15
653 15
654 15
655 15
656 15
657 15
658 15
659 15
660 15
661 15
662 15
663 15
664 15
665 15
666 15
667 15
668 15
669 15
670 15
671 15
672 15
673 15
674 15
675 15
676 15
677 15
678 15
679 15
680 15
681 15
682 15
683 15
684 15
685 15
686 15
687 15
688 15
689 15
690 15
691 15
692 15
693 15
694 15
695 15
696 15
697 15
698 15
699 15
700 15
701 15
702 15
703 15
704 15
705 15
706 15
707 15
708 15
709 15
710 15
711 15
712 15
713 15
714 15
715 15
716 15
717 15
718 15
719 15
720 15
721 15
722 15
723 15
724 15
725 15
726 15
727 15
728 15
729 15
730 15
731 15
732 15
733 15
734 15
735 15
736 15
737 15
738 15
739 15
740 15
741 15
742 15
743 15
744 15
745 15
746 15
747 15
748 15
749 15
750 15
751 15
752 15
753 15
754 15
755 15
756 15
757 15
758 15
759 15
760 15
761 15
762 15
763 15
764 15
765 15
766 15
767 15
768 15
769 15
770 15
771 15
772 15
773 15
774 15
775 15
776 15
777 15
778 15
779 15
780 15
781 15
782 15
783 15
784 15
785 15
786 15
787 15
788 15
789 15
790 15
791 15
792 15
793 15
794 15
795 15
796 15
797 15
798 15
799 15
800 15
801 15
802 15
803 15
804 15
805 15
806 15
807 15
808 15
809 15
810 15
811 15
812 15
813 15
814 15
815 15
816 15
817 15
818 15
819 15
820 15
821 15
822 15
823 15
824 15
825 15
826 15
827 15
828 15
829 15
830 15
831 15
832 15
833 15
834 15
835 15
836 15
837 15
838 15
839 15
840 15
841 15
842 15
843 15
844 15
845 15
846 15
847 15
848 15
849 15
850 15
851 15
852 15
853 15
854 15
855 15
856 15
857 15
858 15
859 15
860 15
861 15
862 15
863 15
864 15
865 15
866 15
867 15
868 15
869 15
870 15
871 15
872 15
873 15
874 15
875 15
876 15
877 15
878 15
879 15
880 15
881 15
882 15
883 15
884 15
885 15
886 15
887 15
888 15
889 15
890 15
891 15
892 15
893 15
894 15
895 15
896 15
897 15
898 15
899 15
900 15
901 15
902 15
903 15
904 15
905 15
906 15
907 15
908 15
909 15
910 15
911 15
912 15
913 15
914 15
915 15
916 15
917 15
918 15
919 15
920 15
921 15
922 15
923 15
924 15
925 15
926 15
927 15
928 15
929 15
930 15
931 15
932 15
933 15
934 15
935 15
936 15
937 15
938 15
939 15
940 15
941 15
942 15
943 15
944 15
945 15
946 15
947 15
948 15
949 15
950 15
951 15
952 15
953 15
954 15
955 15
956 15
957 15
958 15
959 15
960 15
961 15
962 15
963 15
964 15
965 15
966 15
967 15
968 15
969 15
970 15
971 15
972 15
973 15
974 15
975 15
976 15
977 15
978 15
979 15
980 15
981 15
982 15
983 15
984 15
985 15
986 15
987 15
988 15
989 15
990 15
991 15
992 15
993 15
994 15
995 15
996 15
997 15
998 15
999 15
1000 15
1001 15
1002 15
1003 15
1004 15
1005 15
1006 15
1007 15
1008 15
1009 15
1010 15
1011 15
1012 15
1013 15
1014 15
1015 15
1016 15
1017 15
1018 15
1019 15
1020 15
1021 15
1022 15
1023 15
1024 15
1025 15
1026 15
1027 15
1028 15
1029 15
1030 15
1031 15
1032 15
1033 15
1034 15
1035 15
1036 15
1037 15
1038 15
1039 15
1040 15
1041 15
1042 15
1043 15
1044 15
1045 15
1046 15
1047 15
1048 15
1049 15
1050 15
1051 15
1052 15
1053 15
1054 15
1055 15
1056 15
1057 15
1058 15
1059 15
1060 15
1061 15
1062 15
1063 15
1064 15
1065 15
1066 15
1067 15
1068 15
1069 15
1070 15
1071 15
1072 15
1073 15
1074 15
1075 15
1076 15
1077 15
1078 15
1079 15
1080 15
1081 15
1082 15
1083 15
1084 15
1085 15
1086 15
1087 15
1088 15
1089 15
1090 15
1091 15
1092 15
1093 15
1094 15
1095 15
1096 15
1097 15
1098 15
1099 15
1100 15
1101 15
1102 15
1103 15
1104 15
1105 15
1106 15
1107 15
1108 15
1109 15
1110 15
1111 15
1112 15
1113 15
1114 15
1115 15
1116 15
1117 15
1118 15
1119 15
1120 15
1121 15
1122 15
1123 15
1124 15
1125 15
1126 15
1127 15
1128 15
1129 15
1130 15
1131 15
1132 15
1133 15
1134 15
1135 15
1136 15
1137 15
1138 15
1139 15
1140 15
1141 15
1142 15
1143 15
1144 15
1145 15
1146 15
1147 15
1148 15
1149 15
1150 15
1151 15
1152 15
1153 15
1154 15
1155 15
1156 15
1157 15
1158 15
1159 15
1160 15
1161 15
1162 15
1163 15
1164 15
1165 15
1166 15
1167 15
1168 15
1169 15
1170 15
1171 15
1172 15
1173 15
1174 15
1175 15
1176 15
1177 15
1178 15
1179 15
1180 15
1181 15
1182 15
1183 15
1184 15
1185 15
1186 15
1187 15
1188 15
1189 15
1190 15
1191 15
1192 15
1193 15
1194 15
1195 15
1196 15
1197 15
1198 15
1199 15
1200 15
1201 15
1202 15
1203 15
1204 15
1205 15
1206 15
1207 15
1208 15
1209 15
1210 15
1211 15
1212 15
1213 15
1214 15
1215 15
1216 15
1217 15
1218 15
1219 15
1220 15
1221 15
1222 15
1223 15
1224 15
1225 15
1226 15
1227 15
1228 15
1229 15
1230 15
1231 15
1232 15
1233 15
1234 15
1235 15
1236 15
1237 15
1238 15
1239 15
1240 15
1241 15
1242 15
1243 15
1244 15
1245 15
1246 15
1247 15
1248 15
1249 15
1250 15
1251 15
1252 15
1253 15
1254 15
1255 15
1256 15
1257 15
1258 15
1259 15
1260 15
1261 15
1262 15
1263 15
1264 15
1265 15
1266 15
1267 15
1268 15
1269 15
1270 15
1271 15
1272 15
1273 15
1274 15
1275 15
1276 15
1277 15
1278 15
1279 15
1280 15
1281 15
1282 15
1283 15
1284 15
1285 15
1286 15
1287 15
1288 15
1289 15
1290 15
1291 15
1292 15
1293 15
1294 15
1295 15
1296 15
1297 15
1298 15
1299 15
1300 15
1301 15
1302 15
1303 15
1304 15
1305 15
1306 15
1307 15
1308 15
1309 15
1310 15
1311 15
1312 15
1313 15
1314 15
1315 15
1316 15
1317 15
1318 15
1319 15
1320 15
1321 15
1322 15
1323 15
1324 15
1325 15
1326 15
1327 15
1328 15
1329 15
1330 15
1331 15
1332 15
1333 15
1334 15
1335 15
1336 15
1337 15
1338 15
1339 15
1340 15
1341 15
1342 15
1343 15
1344 15
1345 15
1346 15
1347 15
1348 15
1349 15
1350 15
1351 15
1352 15
1353 15
1354 15
1355 15
1356 15
1357 15
1358 15
1359 15
1360 15
1361 15
1362 15
1363 15
1364 15
1365 15
1366 15
1367 15
1368 15
1369 15
1370 15
1371 15
1372 15
1373 15
1374 15
1375 15
1376 15
1377 15
1378 15
1379 15
1380 15
1381 15
1382 15
1383 15
1384 15
1385 15
1386 15
1387 15
1388 15
1389 15
1390 15
1391 15
1392 15
1393 15
1394 15
1395 15
1396 15
1397 15
1398 15
1399 15
1400 15
1401 15
1402 15
1403 15
1404 15
1405 15
1406 15
1407 15
1408 15
1409 15
1410 15
1411 15
1412 15
1413 15
1414 15
1415 15
1416 15
1417 15
1418 15
1419 15
1420 15
1421 15
1422 15
1423 15
1424 15
1425 15
1426 15
1427 15
1428 15
1429 15
1430 15
1431 15
1432 15
1433 15
1434 15
1435 15
1436 15
1437 15
1438 15
1439 15
1440 15
1441 15
1442 15
1443 15
1444 15
1445 15
1446 15
1447 15
1448 15
1449 15
1450 15
1451 15
1452 15
1453 15
1454 15
1455 15
1456 15
1457 15
1458 15
1459 15
1460 15
1461 15
1462 15
1463 15
1464 15
1465 15
1466 15
1467 15
1468 15
1469 15
1470 15
1471 15
1472 15
1473 15
1474 15
1475 15
1476 15
1477 15
1478 15
1479 15
1480 15
1481 15
1482 15
1483 15
1484 15
1485 15
1486 15
1487 15
1488 15
1489 15
1490 15
1491 15
1492 15
1493 15
1494 15
1495 15
1496 15
1497 15
1498 15
1499 15
1500 15
1501 15
1502 15
1503 15
1504 15
1505 15
1506 15
1507 15
1508 15
1509 15
1510 15
1511 15
1512 15
1513 15
1514 15
1515 15
1516 15
1517 15
1518 15
1519 15
1520 15
1521 15
1522 15
1523 15
1524 15
1525 15
1526 15
1527 15
1528 15
1529 15
1530 15
1531 15
1532 15
1533 15
1534 15
1535 15
1536 15
1537 15
1538 15
1539 15
1540 15
1541 15
1542 15
1543 15
1544 15
1545 15
1546 15
1547 15
1548 15
1549 15
1550 15
1551 15
1552 15
1553 15
1554 15
1555 15
1556 15
1557 15
1558 15
1559 15
1560 15
1561 15
1562 15
1563 15
1564 15
1565 15
1566 15
1567 15
1568 15
1569 15
1570 15
1571 15
1572 15
1573 15
1574 15
1575 15
1576 15
1577 15
1578 15
1579 15
1580 15
1581 15
1582 15
1583 15
1584 15
1585 15
1586 15
1587 15
1588 15
1589 15
1590 15
1591 15
1592 15
1593 15
1594 15
1595 15
1596 15
1597 15
1598 15
1599 15
1600 15
1601 15
1602 15
1603 15
1604 15
1605 15
1606 15
1607 15
1608 15
1609 15
1610 15
1611 15
1612 15
1613 15
1614 15
1615 15
1616 15
1617 15
1618 15
1619 15
1620 15
1621 15
1622 15
1623 15
1624 15
1625 15
1626 15
1627 15
1628 15
1629 15
1630 15
1631 15
1632 15
1633 15
1634 15
1635 15
1636 15
1637 15
1638 15
1639 15
1640 15
1641 15
1642 15
1643 15
1644 15
1645 15
1646 15
1647 15
1648 15
1649 15
1650 15
1651 15
1652 15
1653 15
1654 15
1655 15
1656 15
1657 15
1658 15
1659 15
1660 15
1661 15
1662 15
1663 15
1664 15
1665 15
1666 15
1667 15
1668 15
1669 15
1670 15
1671 15
1672 15
1673 15
1674 15
1675 15
1676 15
1677 15
1678 15
1679 15
1680 15
1681 15
1682 15
1683 15
1684 15
1685 15
1686 15
1687 15
1688 15
1689 15
1690 15
1691 15
1692 15
1693 15
1694 15
1695 15
1696 15
1697 15
1698 15
1699 15
1700 15
1701 15
1702 15
1703 15
1704 15
1705 15
1706 15
1707 15
1708 15
1709 15
1710 15
1711 15
1712 15
1713 15
1714 15
1715 15
1716 15
1717 15
1718 15
1719 15
1720 15
1721 15
1722 15
1723 15
1724 15
1725 15
1726 15
1727 15
1728 15
1729 15
1730 15
1731 15
1732 15
1733 15
1734 15
1735 15
1736 15
1737 15
1738 15
1739 15
1740 15
1741 15
1742 15
1743 15
1744 15
1745 15
1746 15
1747 15
1748 15
1749 15
1750 15
1751 15
1752 15
1753 15
1754 15
1755 15
1756 15
1757 15
1758 15
1759 15
1760 15
1761 15
1762 15
1763 15
1764 15
1765 15
1766 15
1767 15
1768 15
1769 15
1770 15
1771 15
1772 15
1773 15
1774 15
1775 15
1776 15
1777 15
1778 15
1779 15
1780 15
1781 15
1782 15
1783 15
1784 15
1785 15
1786 15
1787 15
1788 15
1789 15
1790 15
1791 15
1792 15
1793 15
1794 15
1795 15
1796 15
1797 15
1798 15
1799 15
1800 15
1801 15
1802 15
1803 15
1804 15
1805 15
1806 15
1807 15
1808 15
1809 15
1810 15
1811 15
1812 15
1813 15
1814 15
1815 15
1816 15
1817 15
1818 15
1819 15
1820 15
1821 15
1822 15
1823 15
1824 15
1825 15
1826 15
1827 15
1828 15
1829 15
1830 15
1831 15
1832 15
1833 15
1834 15
1835 15
1836 15
1837 15
1838 15
1839 15
1840 15
1841 15
1842 15
1843 15
1844 15
1845 15
1846 15
1847 15
1848 15
1849 15
1850 15
1851 15
1852 15
1853 15
1854 15
1855 15
1856 15
1857 15
1858 15
1859 15
1860 15
1861 15
1862 15
1863 15
1864 15
1865 15
1866 15
1867 15
1868 15
1869 15
1870 15
1871 15
1872 15
1873 15
1874 15
1875 15
1876 15
1877 15
1878 15
1879 15
1880 15
1881 15
1882 15
1883 15
1884 15
1885 15
1886 15
1887 15
1888 15
1889 15
1890 15
1891 15
1892 15
1893 15
1894 15
1895 15
1896 15
1897 15
1898 15
1899 15
1900 15
1901 15
1902 15
1903 15
1904 15
1905 15
1906 15
1907 15
1908 15
1909 15
1910 15
1911 15
1912 15
1913 15
1914 15
1915 15
1916 15
1917 15
1918 15
1919 15
1920 15
1921 15
1922 15
1923 15
1924 15
1925 15
1926 15
1927 15
1928 15
1929 15
1930 15
1931 15
1932 15
1933 15
1934 15
1935 15
1936 15
1937 15
1938 15
1939 15
1940 15
1941 15
1942 15
1943 15
1944 15
1945 15
1946 15
1947 15
1948 15
1949 15
1950 15
1951 15
1952 15
1953 15
1954 15
1955 15
1956 15
1957 15
1958 15
1959 15
1960 15
1961 15
1962 15
1963 15
1964 15
1965 15
1966 15
1967 15
1968 15
1969 15
1970 15
1971 15
1972 15
1973 15
1974 15
1975 15
1976 15
1977 15
1978 15
1979 15
1980 15
1981 15
1982 15
1983 15
1984 15
1985 15
1986 15
1987 15
1988 15
1989 15
1990 15
1991 15
1992 15
1993 15
1994 15
1995 15
1996 15
1997 15
1998 15
1999 15
2000 15
2001 15
2002 15
2003 15
2004 15
2005 15
2006 15
2007 15
2008 15
2009 15
2010 15
2011 15
2012 15
2013 15
2014 15
2015 15
2016 15
2017 15
2018 15
2019 15
2020 15
2021 15
2022 15
2023 15
2024 15
2025 15
2026 15
2027 15
2028 15
2029 15
2030 15
2031 15
2032 15
2033 15
2034 15
2035 15
2036 15
2037 15
2038 15
2039 15
2040 15
2041 15
2042 15
2043 15
2044 15
2045 15
2046 15
2047 15
2048 15
2049 15
2050 15
2051 15
2052 15
2053 15
2054 15
2055 15
2056 15
2057 15
2058 15
2059 15
2060 15
2061 15
2062 15
2063 15
2064 15
2065 15
2066 15
2067 15
2068 15
2069 15
2070 15
2071 15
2072 15
2073 15
2074 15
2075 15
2076 15
2077 15
2078 15
2079 15
2080 15
2081 15
2082 15
2083 15
2084 15
2085 15
2086 15
2087 15
2088 15
2089 15
2090 15
2091 15
2092 15
2093 15
2094 15
2095 15
2096 15
2097 15
2098 15
2099 15
2100 15
2101 15
2102 15
2103 15
2104 15
2105 15
2106 15
2107 15
2108 15
2109 15
2110 15
2111 15
2112 15
2113 15
2114 15
2115 15
2116 15
2117 15
2118 15
2119 15
2120 15
2121 15
2122 15
2123 15
2124 15
2125 15
2126 15
2127 15
2128 15
2129 15
2130 15
2131 15
2132 15
2133 15
2134 15
2135 15
2136 15
2137 15
2138 15
2139 15
2140 15
2141 15
2142 15
2143 15
2144 15
2145 15
2146 15
2147 15
2148 15
2149 15
2150 15
2151 15
2152 15
2153 15
2154 15
2155 15
2156 15
2157 15
2158 15
2159 15
2160 15
2161 15
2162 15
2163 15
2164 15
2165 15
2166 15
2167 15
2168 15
2169 15
2170 15
2171 15
2172 15
2173 15
2174 15
2175 15
2176 15
2177 15
2178 15
2179 15
2180 15
2181 15
2182 15
2183 15
2184 15
2185 15
2186 15
2187 15
2188 15
2189 15
2190 15
2191 15
2192 15
2193 15
2194 15
2195 15
2196 15
2197 15
2198 15
2199 15
2200 15
2201 15
2202 15
2203 15
2204 15
2205 15
2206 15
2207 15
2208 15
2209 15
2210 15
2211 15
2212 15
2213 15
2214 15
2215 15
2216 15
2217 15
2218 15
2219 15
2220 15
2221 15
2222 15
2223 15
2224 15
2225 15
2226 15
2227 15
2228 15
2229 15
2230 15
2231 15
2232 15
2233 15
2234 15
2235 15
2236 15
2237 15
2238 15
2239 15
2240 15
2241 15
2242 15
2243 15
2244 15
2245 15
2246 15
2247 15
2248 15
2249 15
2250 15
2251 15
2252 15
2253 15
2254 15
2255 15
2256 15
2257 15
2258 15
2259 15
2260 15
2261 15
2262 15
2263 15
2264 15
2265 15
2266 15
2267 15
2268 15
2269 15
2270 15
2271 15
2272 15
2273 15
2274 15
2275 15
2276 15
2277 15
2278 15
2279 15
2280 15
2281 15
2282 15
2283 15
2284 15
2285 15
2286 15
2287 15
2288 15
2289 15
2290 15
2291 15
2292 15
2293 15
2294 15
2295 15
2296 15
2297 15
2298 15
2299 15
2300 15
2301 15
2302 15
2303 15
2304 15
2305 15
2306 15
2307 15
2308 15
2309 15
2310 15
2311 15
2312 15
2313 15
2314 15
2315 15
2316 15
2317 15
2318 15
2319 15
2320 15
2321 15
2322 15
2323 15
2324 15
2325 15
2326 15
2327 15
2328 15
2329 15
2330 15
2331 15
2332 15
2333 15
2334 15
2335 15
2336 15
2337 15
2338 15
2339 15
2340 15
2341 15
2342 15
2343 15
2344 15
2345 15
2346 15
2347 15
2348 15
2349 15
2350 15
2351 15
2352 15
2353 15
2354 15
2355 15
2356 15
2357 15
2358 15
2359 15
2360 15
2361 15
2362 15
2363 15
2364 15
2365 15
2366 15
2367 15
2368 15
2369 15
2370 15
2371 15
2372 15
2373 15
2374 15
2375 15
2376 15
2377 15
2378 15
2379 15
2380 15
2381 15
2382 15
2383 15
2384 15
2385 15
2386 15
2387 15
2388 15
2389 15
2390 15
2391 15
2392 15
2393 15
2394 15
2395 15
2396 15
2397 15
2398 15
2399 15
2400 15
2401 15
2402 15
2403 15
2404 15
2405 15
2406 15
2407 15
2408 15
2409 15
2410 15
2411 15
2412 15
2413 15
2414 15
2415 15
2416 15
2417 15
2418 15
2419 15
2420 15
2421 15
2422 15
2423 15
2424 15
2425 15
2426 15
2427 15
2428 15
2429 15
2430 15
2431 15
2432 15
2433 15
2434 15
2435 15
2436 15
2437 15
2438 15
2439 15
2440 15
2441 15
2442 15
2443 15
2444 15
2445 15
2446 15
2447 15
2448 15
2449 15
2450 15
2451 15
2452 15
2453 15
2454 15
2455 15
2456 15
2457 15
2458 15
2459 15
2460 15
2461 15
2462 15
2463 15
2464 15
2465 15
2466 15
2467 15
2468 15
2469 15
2470 15
2471 15
2472 15
2473 15
2474 15
2475 15
2476 15
2477 15
2478 15
2479 15
2480 15
2481 15
2482 15
2483 15
2484 15
2485 15
2486 15
2487 15
2488 15
2489 15
2490 15
2491 15
2492 15
2493 15
2494 15
2495 15
2496 15
2497 15
2498 15
2499 15
2500 15
2501 15
2502 15
2503 15
2504 15
2505 15
2506 15
2507 15
2508 15
2509 15
2510 15
2511 15
2512 15
2513 15
2514 15
2515 15
2516 15
2517 15
2518 15
2519 15
2520 15
2521 15
2522 15
2523 15
2524 15
2525 15
2526 15
2527 15
2528 15
2529 15
2530 15
2531 15
2532 15
2533 15
2534 15
2535 15
2536 15
2537 15
2538 15
2539 15
2540 15
2541 15
2542 15
2543 15
2544 15
2545 15
2546 15
2547 15
2548 15
2549 15
2550 15
2551 15
2552 15
2553 15
2554 15
2555 15
2556 15
2557 15
2558 15
2559 15
2560 15
2561 15
2562 15
2563 15
2564 15
2565 15
2566 15
2567 15
2568 15
2569 15
2570 15
2571 15
2572 15
2573 15
2574 15
2575 15
2576 15
2577 15
2578 15
2579 15
2580 15
2581 15
2582 15
2583 15
2584 15
2585 15
2586 15
2587 15
2588 15
2589 15
2590 15
2591 15
2592 15
2593 15
2594 15
2595 15
2596 15
2597 15
2598 15
2599 15
2600 15
2601 15
2602 15
2603 15
2604 15
2605 15
2606 15
2607 15
2608 15
2609 15
2610 15
2611 15
2612 15
2613 15
2614 15
2615 15
2616 15
2617 15
2618 15
2619 15
2620 15
2621 15
2622 15
2623 15
2624 15
2625 15
2626 15
2627 15
2628 15
2629 15
2630 15
2631 15
2632 15
2633 15
2634 15
2635 15
2636 15
2637 15
2638 15
2639 15
2640 15
2641 15
2642 15
2643 15
2644 15
2645 15
2646 15
2647 15
2648 15
2649 15
2650 15
2651 15
2652 15
2653 15
2654 15
2655 15
2656 15
2657 15
2658 15
2659 15
2660 15
2661 15
2662 15
2663 15
2664 15
2665 15
2666 15
2667 15
2668 15
2669 15
2670 15
2671 15
2672 15
2673 15
2674 15
2675 15
2676 15
2677 15
2678 15
2679 15
2680 15
2681 15
2682 15
2683 15
2684 15
2685 15
2686 15
2687 15
2688 15
2689 15
2690 15
2691 15
2692 15
2693 15
2694 15
2695 15
2696 15
2697 15
2698 15
2699 15
2700 15
2701 15
2702 15
2703 15
2704 15
2705 15
2706 15
2707 15
2708 15
2709 15
2710 15
2711 15
2712 15
2713 15
2714 15
2715 15
2716 15
2717 15
2718 15
2719 15
2720 15
2721 15
2722 15
2723 15
2724 15
2725 15
2726 15
2727 15
2728 15
2729 15
2730 15
2731 15
2732 15
2733 15
2734 15
2735 15
2736 15
2737 15
2738 15
2739 15
2740 15
2741 15
2742 15
2743 15
2744 15
2745 15
2746 15
2747 15
2748 15
2749 15
2750 15
2751 15
2752 15
2753 15
2754 15
2755 15
2756 15
2757 15
2758 15
2759 15
2760 15
2761 15
2762 15
2763 15
2764 15
2765 15
2766 15
2767 15
2768 15
2769 15
2770 15
2771 15
2772 15
2773 15
2774 15
2775 15
2776 15
2777 15
2778 15
2779 15
2780 15
2781 15
2782 15
2783 15
2784 15
2785 15
2786 15
2787 15
2788 15
2789 15
2790 15
2791 15
2792 15
2793 15
2794 15
2795 15
2796 15
2797 15
2798 15
2799 15
2800 15
2801 15
2802 15
2803 15
2804 15
2805 15
2806 15
2807 15
2808 15
2809 15
2810 15
2811 15
2812 15
2813 15
2814 15
2815 15
2816 15
2817 15
2818 15
2819 15
2820 15
2821 15
2822 15
2823 15
2824 15
2825 15
2826 15
2827 15
2828 15
2829 15
2830 15
2831 15
2832 15
2833 15
2834 15
2835 15
2836 15
2837 15
2838 15
2839 15
2840 15
2841 15
2842 15
2843 15
2844 15
2845 15
2846 15
2847 15
2848 15
2849 15
2850 15
2851 15
2852 15
2853 15
2854 15
2855 15
2856 15
2857 15
2858 15
2859 15
2860 15
2861 15
2862 15
2863 15
2864 15
2865 15
2866 15
2867 15
2868 15
2869 15
2870 15
2871 15
2872 15
2873 15
2874 15
2875 15
2876 15
2877 15
2878 15
2879 15
2880 15
2881 15
2882 15
2883 15
2884 15
2885 15
2886 15
2887 15
2888 15
2889 15
2890 15
2891 15
2892 15
2893 15
2894 15
2895 15
2896 15
2897 15
2898 15
2899 15
2900 15
2901 15
2902 15
2903 15
2904 15
2905 15
2906 15
2907 15
2908 15
2909 15
2910 15
2911 15
2912 15
2913 15
2914 15
2915 15
2916 15
2917 15
2918 15
2919 15
2920 15
2921 15
2922 15
2923 15
2924 15
2925 15
2926 15
2927 15
2928 15
2929 15
2930 15
2931 15
2932 15
2933 15
2934 15
2935 15
2936 15
2937 15
2938 15
2939 15
2940 15
2941 15
2942 15
2943 15
2944 15
2945 15
2946 15
2947 15
2948 15
2949 15
2950 15
2951 15
2952 15
2953 15
2954 15
2955 15
2956 15
2957 15
2958 15
2959 15
2960 15
2961 15
2962 15
2963 15
2964 15
2965 15
2966 15
2967 15
2968 15
2969 15
2970 15
2971 15
2972 15
2973 15
2974 15
2975 15
2976 15
2977 15
2978 15
2979 15
2980 15
2981 15
2982 15
2983 15
2984 15
2985 15
2986 15
2987 15
2988 15
2989 15
2990 15
2991 15
2992 15
2993 15
2994 15
2995 15
2996 15
2997 15
2998 15
2999 15
3000 15
3001 15
3002 15
3003 15
3004 15
3005 15
3006 15
3007 15
3008 15
3009 15
3010 15
3011 15
3012 15
3013 15
3014 15
3015 15
3016 15
3017 15
3018 15
3019 15
3020 15
3021 15
3022 15
3023 15
3024 15
3025 15
3026 15
3027 15
3028 15
3029 15
3030 15
3031 15
3032 15
3033 15
3034 15
3035 15
3036 15
3037 15
3038 15
3039 15
3040 15
3041 15
3042 15
3043 15
3044 15
3045 15
3046 15
3047 15
3048 15
3049 15
3050 15
3051 15
3052 15
3053 15
3054 15
3055 15
3056 15
3057 15
3058 15
3059 15
3060 15
3061 15
3062 15
3063 15
3064 15
3065 15
3066 15
3067 15
3068 15
3069 15
3070 15
3071 15
3072 15
3073 15
3074 15
3075 15
3076 15
3077 15
3078 15
3079 15
3080 15
3081 15
3082 15
3083 15
3084 15
3085 15
3086 15
3087 15
3088 15
3089 15
3090 15
3091 15
3092 15
3093 15
3094 15
3095 15
3096 15
3097 15
3098 15
3099 15
3100 15
3101 15
3102 15
3103 15
3104 15
3105 15
3106 15
3107 15
3108 15
3109 15
3110 15
3111 15
3112 15
3113 15
3114 15
3115 15
3116 15
3117 15
3118 15
3119 15
3120 15
3121 15
3122 15
3123 15
3124 15
3125 15
3126 15
3127 15
3128 15
3129 15
3130 15
3131 15
3132 15
3133 15
3134 15
3135 15
3136 15
3137 15
3138 15
3139 15
3140 15
3141 15
3142 15
3143 15
3144 15
3145 15
3146 15
3147 15
3148 15
3149 15
3150 15
3151 15
3152 15
3153 15
3154 15
3155 15
3156 15
3157 15
3158 15
3159 15
3160 15
3161 15
3162 15
3163 15
3164 15
3165 15
3166 15
3167 15
3168 15
3169 15
3170 15
3171 15
3172 15
3173 15
3174 15
3175 15
3176 15
3177 15
3178 15
3179 15
3180 15
3181 15
3182 15
3183 15
3184 15
3185 15
3186 15
3187 15
3188 15
3189 15
3190 15
3191 15
3192 15
3193 15
3194 15
3195 15
3196 15
3197 15
3198 15
3199 15
3200 15
3201 15
3202 15
3203 15
3204 15
3205 15
3206 15
3207 15
3208 15
3209 15
3210 15
3211 15
3212 15
3213 15
3214 15
3215 15
3216 15
3217 15
3218 15
3219 15
3220 15
3221 15
3222 15
3223 15
3224 15
3225 15
3226 15
3227 15
3228 15
3229 15
3230 15
3231 15
3232 15
3233 15
3234 15
3235 15
3236 15
3237 15
3238 15
3239 15
3240 15
3241 15
3242 15
3243 15
3244 15
3245 15
3246 15
3247 15
3248 15
3249 15
3250 15
3251 15
3252 15
3253 15
3254 15
3255 15
3256 15
3257 15
3258 15
3259 15
3260 15
3261 15
3262 15
3263 15
3264 15
3265 15
3266 15
3267 15
3268 15
3269 15
3270 15
3271 15
3272 15
3273 15
3274 15
3275 15
3276 15
3277 15
3278 15
3279 15
3280 15
3281 15
3282 15
3283 15
3284 15
3285 15
3286 15
3287 15
3288 15
3289 15
3290 15
3291 15
3292 15
3293 15
3294 15
3295 15
3296 15
3297 15
3298 15
3299 15
3300 15
3301 15
3302 15
3303 15
3304 15
3305 15
3306 15
3307 15
3308 15
3309 15
3310 15
3311 15
3312 15
3313 15
3314 15
3315 15
3316 15
3317 15
3318 15
3319 15
3320 15
3321 15
3322 15
3323 15
3324 15
3325 15
3326 15
3327 15
3328 15
3329 15
3330 15
3331 15
3332 15
3333 15
3334 15
3335 15
3336 15
3337 15
3338 15
3339 15
3340 15
3341 15
3342 15
3343 15
3344 15
3345 15
3346 15
3347 15
3348 15
3349 15
3350 15
3351 15
3352 15
3353 15
3354 15
3355 15
3356 15
3357 15
3358 15
3359 15
3360 15
3361 15
3362 15
3363 15
3364 15
3365 15
3366 15
3367 15
3368 15
3369 15
3370 15
3371 15
3372 15
3373 15
3374 15
3375 15
3376 15
3377 15
3378 15
3379 15
3380 15
3381 15
3382 15
3383 15
3384 15
3385 15
3386 15
3387 15
3388 15
3389 15
3390 15
3391 15
3392 15
3393 15
3394 15
3395 15
3396 15
3397 15
3398 15
3399 15
3400 15
3401 15
3402 15
3403 15
3404 15
3405 15
3406 15
3407 15
3408 15
3409 15
3410 15
3411 15
3412 15
3413 15
3414 15
3415 15
3416 15
3417 15
3418 15
3419 15
3420 15
3421 15
3422 15
3423 15
3424 15
3425 15
3426 15
3427 15
3428 15
3429 15
3430 15
3431 15
3432 15
3433 15
3434 15
3435 15
3436 15
3437 15
3438 15
3439 15
3440 15
3441 15
3442 15
3443 15
3444 15
3445 15
3446 15
3447 15
3448 15
3449 15
3450 15
3451 15
3452 15
3453 15
3454 15
3455 15
3456 15
3457 15
3458 15
3459 15
3460 15
3461 15
3462 15
3463 15
3464 15
3465 15
3466 15
3467 15
3468 15
3469 15
3470 15
3471 15
3472 15
3473 15
3474 15
3475 15
3476 15
3477 15
3478 15
3479 15
3480 15
3481 15
3482 15
3483 15
3484 15
3485 15
3486 15
3487 15
3488 15
3489 15
3490 15
3491 15
3492 15
3493 15
3494 15
3495 15
3496 15
3497 15
3498 15
3499 15
3500 15
3501 15
3502 15
3503 15
3504 15
3505 15
3506 15
3507 15
3508 15
3509 15
3510 15
3511 15
3512 15
3513 15
3514 15
3515 15
3516 15
3517 15
3518 15
3519 15
3520 15
3521 15
3522 15
3523 15
3524 15
3525 15
3526 15
3527 15
3528 15
3529 15
3530 15
3531 15
3532 15
3533 15
3534 15
3535 15
3536 15
3537 15
3538 15
3539 15
3540 15
3541 15
3542 15
3543 15
3544 15
3545 15
3546 15
3547 15
3548 15
3549 15
3550 15
3551 15
3552 15
3553 15
3554 15
3555 15
3556 15
3557 15
3558 15
3559 15
3560 15
3561 15
3562 15
3563 15
3564 15
3565 15
3566 15
3567 15
3568 15
3569 15
3570 15
3571 15
3572 15
3573 15
3574 15
3575 15
3576 15
3577 15
3578 15
3579 15
3580 15
3581 15
3582 15
3583 15
3584 15
3585 15
3586 15
3587 15
3588 15
3589 15
3590 15
3591 15
3592 15
3593 15
3594 15
3595 15
3596 15
3597 15
3598 15
3599 15
3600 15
3601 15
3602 15
3603 15
3604 15
3605 15
3606 15
3607 15
3608 15
3609 15
3610 15
3611 15
3612 15
3613 15
3614 15
3615 15
3616 15
3617 15
3618 15
3619 15
3620 15
3621 15
3622 15
3623 15
3624 15
3625 15
3626 15
3627 15
3628 15
3629 15
3630 15
3631 15
3632 15
3633 15
3634 15
3635 15
3636 15
3637 15
3638 15
3639 15
3640 15
3641 15
3642 15
3643 15
3644 15
3645 15
3646 15
3647 15
3648 15
3649 15
3650 15
3651 15
3652 15
3653 15
3654 15
3655 15
3656 15
3657 15
3658 15
3659 15
3660 15
3661 15
3662 15
3663 15
3664 15
3665 15
3666 15
3667 15
3668 15
3669 15
3670 15
3671 15
3672 15
3673 15
3674 15
3675 15
3676 15
3677 15
3678 15
3679 15
3680 15
3681 15
3682 15
3683 15
3684 15
3685 15
3686 15
3687 15
3688 15
3689 15
3690 15
3691 15
3692 15
3693 15
3694 15
3695 15
3696 15
3697 15
3698 15
3699 15
3700 15
3701 15
3702 15
3703 15
3704 15
3705 15
3706 15
3707 15
3708 15
3709 15
3710 15
3711 15
3712 15
3713 15
3714 15
3715 15
3716 15
3717 15
3718 15
3719 15
3720 15
3721 15
3722 15
3723 15
3724 15
3725 15
3726 15
3727 15
3728 15
3729 15
3730 15
3731 15
3732 15
3733 15
3734 15
3735 15
3736 15
3737 15
3738 15
3739 15
3740 15
3741 15
3742 15
3743 15
3744 15
3745 15
3746 15
3747 15
3748 15
3749 15
3750 15
3751 15
3752 15
3753 15
3754 15
3755 15
3756 15
3757 15
3758 15
3759 15
3760 15
3761 15
3762 15
3763 15
3764 15
3765 15
3766 15
3767 15
3768 15
3769 15
3770 15
3771 15
3772 15
3773 15
3774 15
3775 15
3776 15
3777 15
3778 15
3779 15
3780 15
3781 15
3782 15
3783 15
3784 15
3785 15
3786 15
3787 15
3788 15
3789 15
3790 15
3791 15
3792 15
3793 15
3794 15
3795 15
3796 15
3797 15
3798 15
3799 15
3800 15
3801 15
3802 15
3803 15
3804 15
3805 15
3806 15
3807 15
3808 15
3809 15
3810 15
3811 15
3812 15
3813 15
3814 15
3815 15
3816 15
3817 15
3818 15
3819 15
3820 15
3821 15
3822 15
3823 15
3824 15
3825 15
3826 15
3827 15
3828 15
3829 15
3830 15
3831 15
3832 15
3833 15
3834 15
3835 15
3836 15
3837 15
3838 15
3839 15
3840 15
3841 15
3842 15
3843 15
3844 15
3845 15
3846 15
3847 15
3848 15
3849 15
3850 15
3851 15
3852 15
3853 15
3854 15
3855 15
3856 15
3857 15
3858 15
3859 15
3860 15
3861 15
3862 15
3863 15
3864 15
3865 15
3866 15
3867 15